c n orig vars 100
p cnf 180 451
-150 0
-121 170 0
-121 169 0
121 -170 -169 0
-165 168 0
-165 167 0
165 -168 -167 0
170 -50 0
170 -16 0
170 -18 0
170 -44 0
170 -43 0
170 -157 0
170 -120 0
170 -126 0
170 -17 0
170 -96 0
170 -30 0
-170 50 16 18 44 43 157 120 126 17 96 30 0
133 -24 0
133 -118 0
-133 24 118 0
-177 175 0
-177 38 0
177 -175 -38 0
-139 110 0
-139 127 0
-139 136 0
139 -110 -127 -136 0
-106 91 0
106 -91 0
-107 116 0
-107 92 0
107 -116 -92 0
-108 172 0
-108 171 0
108 -172 -171 0
-109 130 0
-109 31 0
109 -130 -31 0
110 -45 0
110 -44 0
110 -47 0
110 -46 0
110 -7 0
110 -10 0
110 -2 0
110 -1 0
110 -95 0
110 -111 0
110 -108 0
110 -109 0
110 -96 0
110 -97 0
-110 45 44 47 46 7 10 2 1 95 111 108 109 96 97 0
-111 160 0
-111 166 0
111 -160 -166 0
-112 113 0
-112 9 0
112 -113 -9 0
-113 98 0
113 -98 0
127 -8 0
127 -45 0
127 -47 0
127 -7 0
127 -2 0
127 -29 0
127 -42 0
127 -3 0
127 -11 0
127 -165 0
127 -121 0
127 -178 0
127 -30 0
127 -12 0
-127 8 45 47 7 2 29 42 3 11 165 121 178 30 12 0
171 -50 0
171 -16 0
171 -18 0
171 -44 0
171 -43 0
171 -157 0
171 -120 0
171 -146 0
171 -19 0
171 -96 0
171 -30 0
-171 50 16 18 44 43 157 120 146 19 96 30 0
115 -13 0
115 -40 0
-115 13 40 0
-116 87 0
116 -87 0
117 -93 0
117 -94 0
-117 93 94 0
-118 179 0
-118 119 0
118 -179 -119 0
119 -14 0
119 -32 0
-119 14 32 0
-120 148 0
-120 122 0
120 -148 -122 0
148 -72 0
148 -77 0
148 -78 0
148 -67 0
148 -70 0
148 -57 0
148 -58 0
148 -91 0
148 -68 0
148 -112 0
148 -158 0
-148 72 77 78 67 70 57 58 91 68 112 158 0
122 -72 0
122 -67 0
122 -58 0
122 -98 0
122 -75 0
122 -76 0
122 -68 0
122 -64 0
122 -35 0
122 -152 0
122 -157 0
-122 72 67 58 98 75 76 68 64 35 152 157 0
123 -72 0
123 -77 0
123 -78 0
123 -75 0
123 -76 0
123 -89 0
123 -79 0
123 -80 0
123 -68 0
123 -107 0
123 -149 0
-123 72 77 78 75 76 89 79 80 68 107 149 0
-124 142 0
-124 179 0
-124 125 0
-124 145 0
124 -142 -179 -125 -145 0
125 -33 0
125 -40 0
-125 33 40 0
145 -37 0
145 -32 0
-145 37 32 0
147 -77 0
147 -67 0
147 -70 0
147 -75 0
147 -80 0
147 -87 0
147 -69 0
147 -68 0
147 -64 0
147 -180 0
147 -135 0
-147 77 67 70 75 80 87 69 68 64 180 135 0
128 -28 0
128 -32 0
-128 28 32 0
166 -29 0
166 -30 0
166 -12 0
-166 29 30 12 0
130 -65 0
130 -59 0
130 -21 0
130 -26 0
130 -52 0
130 -61 0
130 -54 0
130 -55 0
-130 65 59 21 26 52 61 54 55 0
131 -22 0
131 -124 0
-131 22 124 0
-132 133 0
-132 56 0
132 -133 -56 0
172 -15 0
172 -18 0
172 -49 0
172 -44 0
172 -43 0
172 -102 0
172 -114 0
172 -41 0
172 -97 0
172 -12 0
-172 15 18 49 44 43 102 114 41 97 12 0
-134 123 0
-134 147 0
134 -123 -147 0
-135 142 0
-135 179 0
-135 156 0
-135 155 0
135 -142 -179 -156 -155 0
136 -48 0
136 -50 0
136 -49 0
136 -45 0
136 -44 0
136 -47 0
136 -46 0
136 -43 0
136 -42 0
136 -4 0
136 -3 0
136 -135 0
136 -134 0
136 -144 0
136 -143 0
-136 48 50 49 45 44 47 46 43 42 4 3 135 134 144 143 0
-137 110 0
-137 164 0
-137 136 0
137 -110 -164 -136 0
-138 164 0
-138 127 0
-138 136 0
138 -164 -127 -136 0
-146 101 0
-146 34 0
146 -101 -34 0
-140 110 0
-140 164 0
-140 127 0
140 -110 -164 -127 0
141 -63 0
141 -66 0
141 -65 0
141 -62 0
141 -61 0
141 -53 0
141 -54 0
141 -55 0
-141 63 66 65 62 61 53 54 55 0
-161 179 0
-161 128 0
161 -179 -128 0
167 -95 0
167 -96 0
167 -97 0
-167 95 96 97 0
-143 141 0
-143 31 0
143 -141 -31 0
-144 131 0
-144 38 0
144 -131 -38 0
-126 105 0
-126 34 0
126 -105 -34 0
105 -23 0
105 -124 0
-105 23 124 0
175 -27 0
175 -176 0
-175 27 176 0
150 -140 0
150 -139 0
150 -138 0
150 -137 0
-150 140 139 138 137 0
151 -86 0
151 -94 0
-151 86 94 0
-152 106 0
-152 88 0
152 -106 -88 0
153 -82 0
153 -84 0
-153 82 84 0
154 -85 0
154 -84 0
-154 85 84 0
155 -73 0
155 -84 0
-155 73 84 0
156 -81 0
156 -100 0
-156 81 100 0
-157 142 0
-157 179 0
-157 151 0
-157 153 0
157 -142 -179 -151 -153 0
-158 142 0
-158 179 0
-158 117 0
-158 154 0
158 -142 -179 -117 -154 0
-159 71 0
159 -71 0
-102 179 0
-102 159 0
102 -179 -159 0
-162 129 0
-162 31 0
162 -129 -31 0
129 -66 0
129 -25 0
129 -65 0
129 -26 0
129 -51 0
129 -52 0
129 -53 0
129 -55 0
-129 66 25 65 26 51 52 53 55 0
-178 163 0
-178 31 0
178 -163 -31 0
163 -65 0
163 -59 0
163 -60 0
163 -51 0
163 -52 0
163 -62 0
163 -53 0
163 -54 0
-163 65 59 60 51 52 62 53 54 0
103 -36 0
103 -161 0
-103 36 161 0
-114 103 0
-114 56 0
114 -103 -56 0
168 -8 0
168 -50 0
168 -16 0
168 -15 0
168 -18 0
168 -49 0
168 -45 0
168 -44 0
168 -47 0
168 -46 0
168 -7 0
168 -2 0
168 -29 0
168 -43 0
168 -42 0
168 -3 0
168 -11 0
168 -157 0
168 -102 0
168 -120 0
168 -132 0
168 -126 0
168 -178 0
168 -17 0
168 -20 0
168 -96 0
168 -30 0
168 -97 0
168 -12 0
-168 8 50 16 15 18 49 45 44 47 46 7 2 29 43 42 3 11 157 102 120 132 126 178 17 20 96 30 97 12 0
169 -15 0
169 -18 0
169 -49 0
169 -44 0
169 -43 0
169 -102 0
169 -132 0
169 -20 0
169 -97 0
169 -12 0
-169 15 18 49 44 43 102 132 20 97 12 0
101 -39 0
101 -176 0
-101 39 176 0
-179 74 0
179 -74 0
-142 90 0
142 -90 0
173 -83 0
173 -84 0
-173 83 84 0
174 -99 0
174 -100 0
-174 99 100 0
-149 174 0
-149 173 0
-149 142 0
-149 179 0
149 -174 -173 -142 -179 0
-176 142 0
-176 179 0
-176 115 0
-176 119 0
176 -142 -179 -115 -119 0
160 -50 0
160 -16 0
160 -15 0
160 -18 0
160 -49 0
160 -45 0
160 -44 0
160 -47 0
160 -46 0
160 -7 0
160 -10 0
160 -2 0
160 -1 0
160 -95 0
160 -43 0
160 -157 0
160 -102 0
160 -120 0
160 -114 0
160 -146 0
160 -109 0
160 -19 0
160 -41 0
160 -96 0
160 -30 0
160 -97 0
160 -12 0
-160 50 16 15 18 49 45 44 47 46 7 10 2 1 95 43 157 102 120 114 146 109 19 41 96 30 97 12 0
164 -5 0
164 -8 0
164 -50 0
164 -49 0
164 -45 0
164 -44 0
164 -47 0
164 -7 0
164 -10 0
164 -43 0
164 -42 0
164 -4 0
164 -135 0
164 -134 0
164 -177 0
164 -162 0
-164 5 8 50 49 45 44 47 7 10 43 42 4 135 134 177 162 0
-104 89 0
104 -89 0
-180 104 0
-180 6 0
180 -104 -6 0
